WARNING: for repeatability, setting FPU to use double precision
============================[ Problem Statistics ]=============================
|                                                                             |
|  Number of variables:           800                                         |
|  Number of clauses:            7850                                         |
|  Parse time:                   0.00 s                                       |
|                                                                             |
c ============================[ Search Statistics ]==============================
c | Conflicts |          ORIGINAL         |          LEARNT          | Progress |
c |           |    Vars  Clauses Literals |    Limit  Clauses Lit/Cl |          |
c ===============================================================================
c Switched to VSIDS.
c Switched to LRB.
c Switched to VSIDS.
c Switched to LRB.
c Switched to VSIDS.
c Switched to LRB.
c Switched to VSIDS.
c Switched to LRB.
c Switched to VSIDS.
c Switched to LRB.
c Switched to VSIDS.
c Switched to LRB.
c Switched to VSIDS.
c Switched to LRB.
c Switched to VSIDS.
c Switched to LRB.
c Switched to VSIDS.
c Switched to LRB.
c Switched to VSIDS.
c Switched to LRB.
c Switched to VSIDS.
c Switched to LRB.
c Switched to VSIDS.
c Switched to LRB.
c Switched to VSIDS.
c Switched to LRB.
c Switched to VSIDS.
c Switched to LRB.
c Switched to VSIDS.
c Switched to LRB.
c ===============================================================================
restarts                  : 107794
conflicts                 : 22703591       (6453 /sec)
decisions                 : 54682471       (0.00 % random) (15542 /sec)
propagations              : 5669748335     (1611474 /sec)
conflict literals         : 2402745652     (5.04 % deleted)

conflicts w/ DIP found    : 11965954       (52.71 % of conflicts)
conflicts w/ dangerous DIP: 0              (0.00 % of conflicts)
conflicts w/ DIP-learning : 471582         (2.08 % of conflicts)
decisions on ext vars     : 817003         (1.49 % of decisions)
total ext vars            : 8575        
tried delete ext vars     : 1142        
deleted ext vars          : 1142        
max ext vars              : 7433        

Memory used               : 438.00 MB
CPU time                  : 3518.36 s
DIP computation time      : 91.0301 s (2.59 % of total time)
ER_sel time               : 30.0652 s
ER_add time               : 0.029681 s
ER_delC time              : 0 s
ER_delV time              : 0.092369 s
ER_sub time               : 34.0967 s
ER_stat time              : 0 s

INDETERMINATE
